<number of tasks>
100

<cycle time>
1000

<order strength>
0.897


<task times>
1 558
2 719
3 285
4 348
5 703
6 507
7 476
8 296
9 509
10 590
11 419
12 686
13 526
14 618
15 433
16 642
17 439
18 518
19 581
20 299
21 340
22 507
23 504
24 642
25 537
26 532
27 499
28 498
29 675
30 342
31 392
32 468
33 501
34 449
35 639
36 623
37 370
38 494
39 436
40 451
41 569
42 652
43 708
44 566
45 646
46 492
47 538
48 425
49 461
50 416
51 567
52 504
53 653
54 201
55 669
56 400
57 419
58 434
59 513
60 672
61 428
62 585
63 385
64 417
65 430
66 482
67 341
68 543
69 494
70 382
71 591
72 534
73 544
74 438
75 460
76 609
77 591
78 518
79 657
80 477
81 594
82 612
83 470
84 240
85 572
86 741
87 473
88 230
89 463
90 443
91 448
92 240
93 561
94 547
95 608
96 527
97 662
98 451
99 548
100 567

<precedence relations>
1,5
1,6
2,5
2,6
3,5
3,6
4,5
4,6
5,7
5,8
5,9
6,7
6,8
6,9
7,10
7,11
7,12
7,13
7,14
8,10
8,12
8,13
8,14
9,10
9,11
9,12
9,13
9,14
10,15
10,16
10,17
10,18
11,15
11,16
11,17
11,18
12,15
12,16
12,17
12,18
13,17
13,18
14,15
14,16
14,17
14,18
15,19
15,20
16,19
16,20
17,19
17,20
18,19
18,20
19,21
19,22
19,23
19,24
19,25
20,21
20,22
20,23
20,24
20,25
21,26
21,27
21,28
22,26
22,27
22,28
23,26
23,27
23,28
24,26
24,27
24,28
25,26
25,27
25,28
26,29
26,30
26,31
26,32
27,29
27,30
27,31
27,32
28,29
28,30
28,31
28,32
29,33
29,34
29,35
29,36
29,37
30,33
30,34
31,33
31,34
31,35
31,36
31,37
32,36
32,45
32,46
33,38
33,39
33,40
34,38
34,39
34,40
35,38
36,76
36,87
36,91
37,39
38,41
38,42
38,43
39,41
39,43
40,46
41,44
41,45
41,47
42,45
42,46
43,44
43,55
43,57
44,51
44,52
45,48
45,50
45,54
46,47
46,48
46,49
46,50
46,51
46,52
47,53
47,54
47,55
47,56
47,57
48,53
48,55
48,57
49,53
49,54
49,55
49,56
50,56
50,59
51,74
51,86
52,54
52,56
53,58
54,58
54,59
54,60
55,59
55,65
55,71
56,58
56,60
56,61
57,73
57,76
57,77
58,62
58,63
59,70
60,64
60,66
60,67
61,62
61,63
62,64
62,66
62,67
63,64
63,65
63,66
63,67
64,68
65,69
65,73
65,74
66,68
66,69
67,68
68,70
68,71
69,72
70,72
70,73
70,74
71,76
71,82
72,75
72,76
72,77
72,78
73,83
73,90
74,76
75,80
75,82
75,84
76,90
76,94
76,100
77,81
77,82
78,79
78,80
78,81
80,99
80,100
81,83
81,84
81,85
82,85
83,92
83,93
84,87
84,88
84,91
85,86
85,87
86,91
87,89
87,96
88,90
89,92
89,98
90,92
91,93
93,94
93,95
94,96
94,97
95,98
95,99
95,100

<end>
